(set-info :smt-lib-version 2.6)
(set-logic AUFBVFPDTNIRA)
(set-info :source |
Generated by: AdaCore
Generated on: 2020-03-06
Generator: SPARK
Application: Program verification for Ada
Target solver: Z3
|)
(set-info :license "https://creativecommons.org/licenses/by/4.0/")
(set-info :category "industrial")
(set-info :status unknown)
;;; generated by SMT-LIB2 driver
;;; SMT-LIB2 driver: bit-vectors, common part
;;; SMT-LIB2: integer arithmetic
(declare-sort string 0)

(declare-datatypes () ((tuple0 (Tuple0))))
(declare-sort us_private 0)

(declare-fun private__bool_eq (us_private us_private) Bool)

(declare-const us_null_ext__ us_private)

(declare-sort us_type_of_heap 0)

(declare-datatypes ()
((us_type_of_heap__ref
 (us_type_of_heap__refqtmk (us_type_of_heap__content us_type_of_heap)))))
(declare-sort us_image 0)

(declare-datatypes () ((int__ref (int__refqtmk (int__content Int)))))
(declare-datatypes () ((bool__ref (bool__refqtmk (bool__content Bool)))))
(declare-datatypes ()
((us_fixed__ref (us_fixed__refqtmk (us_fixed__content Int)))))
(declare-datatypes () ((real__ref (real__refqtmk (real__content Real)))))
(declare-datatypes ()
((us_private__ref (us_private__refqtmk (us_private__content us_private)))))
(define-fun int__ref___projection ((a int__ref)) Int (int__content a))

(define-fun us_fixed__ref___projection ((a us_fixed__ref)) Int (us_fixed__content
                                                               a))

(define-fun bool__ref___projection ((a bool__ref)) Bool (bool__content a))

(define-fun real__ref___projection ((a real__ref)) Real (real__content a))

(define-fun us_private__ref___projection ((a us_private__ref)) us_private 
  (us_private__content a))

(define-fun in_range ((x Int)) Bool (or (= x 0) (= x 1)))

(declare-fun attr__ATTRIBUTE_IMAGE (Bool) us_image)

(declare-fun attr__ATTRIBUTE_VALUE__pre_check (us_image) Bool)

(declare-fun attr__ATTRIBUTE_VALUE (us_image) Bool)

(declare-sort integer 0)

(declare-fun integerqtint (integer) Int)

;; integer'axiom
  (assert
  (forall ((i integer))
  (and (<= (- 2147483648) (integerqtint i)) (<= (integerqtint i) 2147483647))))

(define-fun in_range1 ((x Int)) Bool (and (<= (- 2147483648) x)
                                     (<= x 2147483647)))

(declare-fun attr__ATTRIBUTE_IMAGE1 (Int) us_image)

(declare-fun attr__ATTRIBUTE_VALUE__pre_check1 (us_image) Bool)

(declare-fun attr__ATTRIBUTE_VALUE1 (us_image) Int)

(declare-fun user_eq (integer integer) Bool)

(declare-const dummy integer)

(declare-datatypes ()
((integer__ref (integer__refqtmk (integer__content integer)))))
(define-fun integer__ref_integer__content__projection ((a integer__ref)) integer 
  (integer__content a))

(define-fun to_rep ((x integer)) Int (integerqtint x))

(declare-fun of_rep (Int) integer)

;; inversion_axiom
  (assert
  (forall ((x integer)) (! (= (of_rep (to_rep x)) x) :pattern ((to_rep x)) )))

;; range_axiom
  (assert
  (forall ((x integer)) (! (in_range1 (to_rep x)) :pattern ((to_rep x)) )))

;; coerce_axiom
  (assert
  (forall ((x Int))
  (! (=> (in_range1 x) (= (to_rep (of_rep x)) x)) :pattern ((to_rep
                                                            (of_rep x))) )))

(declare-sort positive 0)

(declare-fun positiveqtint (positive) Int)

;; positive'axiom
  (assert
  (forall ((i positive))
  (and (<= 1 (positiveqtint i)) (<= (positiveqtint i) 2147483647))))

(define-fun in_range2 ((x Int)) Bool (and (<= 1 x) (<= x 2147483647)))

(declare-fun attr__ATTRIBUTE_IMAGE2 (Int) us_image)

(declare-fun attr__ATTRIBUTE_VALUE__pre_check2 (us_image) Bool)

(declare-fun attr__ATTRIBUTE_VALUE2 (us_image) Int)

(declare-fun user_eq1 (positive positive) Bool)

(declare-const dummy1 positive)

(declare-datatypes ()
((positive__ref (positive__refqtmk (positive__content positive)))))
(define-fun positive__ref_positive__content__projection ((a positive__ref)) positive 
  (positive__content a))

(define-fun dynamic_invariant ((temp___expr_46 Int) (temp___is_init_42 Bool)
  (temp___skip_constant_43 Bool) (temp___do_toplevel_44 Bool)
  (temp___do_typ_inv_45 Bool)) Bool (=>
                                    (or (= temp___is_init_42 true)
                                    (<= 1 2147483647)) (in_range2
                                    temp___expr_46)))

(define-fun to_rep1 ((x positive)) Int (positiveqtint x))

(declare-fun of_rep1 (Int) positive)

;; inversion_axiom
  (assert
  (forall ((x positive))
  (! (= (of_rep1 (to_rep1 x)) x) :pattern ((to_rep1 x)) )))

;; range_axiom
  (assert
  (forall ((x positive)) (! (in_range2 (to_rep1 x)) :pattern ((to_rep1 x)) )))

;; coerce_axiom
  (assert
  (forall ((x Int))
  (! (=> (in_range2 x) (= (to_rep1 (of_rep1 x)) x)) :pattern ((to_rep1
                                                              (of_rep1 x))) )))

(declare-datatypes ()
((map__ref (map__refqtmk (map__content (Array Int integer))))))
(declare-fun slide ((Array Int integer) Int Int) (Array Int integer))

;; slide_eq
  (assert
  (forall ((a (Array Int integer)))
  (forall ((first Int))
  (! (= (slide a first first) a) :pattern ((slide a first first)) ))))

;; slide_def
  (assert
  (forall ((a (Array Int integer)))
  (forall ((old_first Int))
  (forall ((new_first Int))
  (forall ((i Int))
  (! (= (select (slide a old_first new_first) i) (select a (- i (- new_first old_first)))) :pattern ((select 
  (slide a old_first new_first) i)) ))))))

(define-fun bool_eq ((a (Array Int integer)) (a__first Int) (a__last Int)
  (b (Array Int integer)) (b__first Int)
  (b__last Int)) Bool (ite (and
                           (ite (<= a__first a__last)
                           (and (<= b__first b__last)
                           (= (- a__last a__first) (- b__last b__first)))
                           (< b__last b__first))
                           (forall ((temp___idx_154 Int))
                           (=>
                           (and (<= a__first temp___idx_154)
                           (<= temp___idx_154 a__last))
                           (= (to_rep (select a temp___idx_154)) (to_rep
                                                                 (select b (+ (- b__first a__first) temp___idx_154)))))))
                      true false))

;; bool_eq_rev
  (assert
  (forall ((a (Array Int integer)) (b (Array Int integer)))
  (forall ((a__first Int) (a__last Int) (b__first Int) (b__last Int))
  (=> (= (bool_eq b b__first b__last a a__first a__last) true)
  (and
  (ite (<= a__first a__last)
  (and (<= b__first b__last) (= (- a__last a__first) (- b__last b__first)))
  (< b__last b__first))
  (forall ((temp___idx_154 Int))
  (=> (and (<= a__first temp___idx_154) (<= temp___idx_154 a__last))
  (= (to_rep (select a temp___idx_154)) (to_rep
                                        (select b (+ (- b__first a__first) temp___idx_154)))))))))))

(declare-sort t 0)

(declare-fun first (t) integer)

(declare-fun last (t) integer)

(declare-fun mk (Int Int) t)

;; mk_def
  (assert
  (forall ((f Int) (l Int))
  (! (=> (in_range1 f)
     (=> (in_range1 l)
     (and (= (to_rep (first (mk f l))) f) (= (to_rep (last (mk f l))) l)))) :pattern (
  (mk f l)) )))

(define-fun dynamic_property ((range_first Int) (range_last Int) (low Int)
  (high Int)) Bool (and (in_range1 low)
                   (and (in_range1 high)
                   (=> (<= low high) (and (in_range2 low) (in_range2 high))))))

(declare-datatypes () ((us_t (us_tqtmk (elts (Array Int integer))(rt t)))))
(define-fun to_array ((a us_t)) (Array Int integer) (elts a))

(define-fun of_array ((a (Array Int integer)) (f Int)
  (l Int)) us_t (us_tqtmk a (mk f l)))

(define-fun first1 ((a us_t)) Int (to_rep (first (rt a))))

(define-fun last1 ((a us_t)) Int (to_rep (last (rt a))))

(define-fun length ((a us_t)) Int (ite (<= (first1 a) (last1 a))
                                  (+ (- (last1 a) (first1 a)) 1) 0))

(declare-const value__size Int)

(declare-const object__size Int)

(declare-const component__size Int)

(declare-const alignment Int)

;; value__size_axiom
  (assert (<= 0 value__size))

;; object__size_axiom
  (assert (<= 0 object__size))

;; component__size_axiom
  (assert (<= 0 component__size))

;; alignment_axiom
  (assert (<= 0 alignment))

(define-fun bool_eq1 ((x us_t)
  (y us_t)) Bool (bool_eq (elts x) (to_rep (first (rt x)))
                 (to_rep (last (rt x))) (elts y) (to_rep (first (rt y)))
                 (to_rep (last (rt y)))))

(declare-fun user_eq2 (us_t us_t) Bool)

(declare-const dummy2 us_t)

(declare-datatypes ()
((int_array__ref (int_array__refqtmk (int_array__content us_t)))))
(define-fun int_array__ref_int_array__content__projection ((a int_array__ref)) us_t 
  (int_array__content a))

(declare-const s us_t)

(declare-const attr__ATTRIBUTE_ADDRESS Int)

(declare-datatypes ()
((map__ref1 (map__refqtmk1 (map__content1 (Array Int positive))))))
(declare-fun slide1 ((Array Int positive) Int Int) (Array Int positive))

;; slide_eq
  (assert
  (forall ((a (Array Int positive)))
  (forall ((first2 Int))
  (! (= (slide1 a first2 first2) a) :pattern ((slide1 a first2 first2)) ))))

;; slide_def
  (assert
  (forall ((a (Array Int positive)))
  (forall ((old_first Int))
  (forall ((new_first Int))
  (forall ((i Int))
  (! (= (select (slide1 a old_first new_first) i) (select a (- i (- new_first old_first)))) :pattern ((select 
  (slide1 a old_first new_first) i)) ))))))

(define-fun bool_eq2 ((a (Array Int positive)) (a__first Int) (a__last Int)
  (b (Array Int positive)) (b__first Int)
  (b__last Int)) Bool (ite (and
                           (ite (<= a__first a__last)
                           (and (<= b__first b__last)
                           (= (- a__last a__first) (- b__last b__first)))
                           (< b__last b__first))
                           (forall ((temp___idx_155 Int))
                           (=>
                           (and (<= a__first temp___idx_155)
                           (<= temp___idx_155 a__last))
                           (= (to_rep1 (select a temp___idx_155)) (to_rep1
                                                                  (select b (+ (- b__first a__first) temp___idx_155)))))))
                      true false))

;; bool_eq_rev
  (assert
  (forall ((a (Array Int positive)) (b (Array Int positive)))
  (forall ((a__first Int) (a__last Int) (b__first Int) (b__last Int))
  (=> (= (bool_eq2 b b__first b__last a a__first a__last) true)
  (and
  (ite (<= a__first a__last)
  (and (<= b__first b__last) (= (- a__last a__first) (- b__last b__first)))
  (< b__last b__first))
  (forall ((temp___idx_155 Int))
  (=> (and (<= a__first temp___idx_155) (<= temp___idx_155 a__last))
  (= (to_rep1 (select a temp___idx_155)) (to_rep1
                                         (select b (+ (- b__first a__first) temp___idx_155)))))))))))

(declare-sort t1 0)

(declare-fun first2 (t1) integer)

(declare-fun last2 (t1) integer)

(declare-fun mk1 (Int Int) t1)

;; mk_def
  (assert
  (forall ((f Int) (l Int))
  (! (=> (in_range1 f)
     (=> (in_range1 l)
     (and (= (to_rep (first2 (mk1 f l))) f) (= (to_rep (last2 (mk1 f l))) l)))) :pattern (
  (mk1 f l)) )))

(define-fun dynamic_property1 ((range_first Int) (range_last Int) (low Int)
  (high Int)) Bool (and (in_range1 low)
                   (and (in_range1 high)
                   (=> (<= low high) (and (in_range2 low) (in_range2 high))))))

(declare-datatypes ()
((us_t1 (us_tqtmk1 (elts1 (Array Int positive))(rt1 t1)))))
(define-fun to_array1 ((a us_t1)) (Array Int positive) (elts1 a))

(define-fun of_array1 ((a (Array Int positive)) (f Int)
  (l Int)) us_t1 (us_tqtmk1 a (mk1 f l)))

(define-fun first3 ((a us_t1)) Int (to_rep (first2 (rt1 a))))

(define-fun last3 ((a us_t1)) Int (to_rep (last2 (rt1 a))))

(define-fun length1 ((a us_t1)) Int (ite (<= (first3 a) (last3 a))
                                    (+ (- (last3 a) (first3 a)) 1) 0))

(declare-const value__size1 Int)

(declare-const object__size1 Int)

(declare-const component__size1 Int)

(declare-const alignment1 Int)

;; value__size_axiom
  (assert (<= 0 value__size1))

;; object__size_axiom
  (assert (<= 0 object__size1))

;; component__size_axiom
  (assert (<= 0 component__size1))

;; alignment_axiom
  (assert (<= 0 alignment1))

(define-fun bool_eq3 ((x us_t1)
  (y us_t1)) Bool (bool_eq2 (elts1 x) (to_rep (first2 (rt1 x)))
                  (to_rep (last2 (rt1 x))) (elts1 y)
                  (to_rep (first2 (rt1 y))) (to_rep (last2 (rt1 y)))))

(declare-fun user_eq3 (us_t1 us_t1) Bool)

(declare-const dummy3 us_t1)

(declare-datatypes ()
((cut_points__ref (cut_points__refqtmk (cut_points__content us_t1)))))
(define-fun cut_points__ref_cut_points__content__projection ((a cut_points__ref)) us_t1 
  (cut_points__content a))

(declare-const cut__first integer)

(declare-const cut__last integer)

(declare-const attr__ATTRIBUTE_ADDRESS1 Int)

(declare-const attr__ATTRIBUTE_ADDRESS2 Int)

(declare-const attr__ATTRIBUTE_ADDRESS3 Int)

(declare-const attr__ATTRIBUTE_ADDRESS4 Int)

(declare-const attr__ATTRIBUTE_ADDRESS5 Int)

(declare-const r33b Int)

(declare-const attr__ATTRIBUTE_ADDRESS6 Int)

(define-fun dynamic_invariant1 ((temp___expr_171 us_t)
  (temp___is_init_167 Bool) (temp___skip_constant_168 Bool)
  (temp___do_toplevel_169 Bool)
  (temp___do_typ_inv_170 Bool)) Bool (and
                                     (=>
                                     (not (= temp___skip_constant_168 true))
                                     (dynamic_property 1 2147483647
                                     (first1 temp___expr_171)
                                     (last1 temp___expr_171)))
                                     (=> (= temp___do_toplevel_169 true)
                                     (=> (= temp___is_init_167 true)
                                     (= (first1 temp___expr_171) 1)))))

(define-fun dynamic_predicate ((temp___174 us_t)) Bool (= (first1 temp___174) 1))

(declare-datatypes () ((tcutS__ref (tcutS__refqtmk (tcutS__content us_t1)))))
(define-fun tcutS__ref_tcutS__content__projection ((a tcutS__ref)) us_t1 
  (tcutS__content a))

(declare-datatypes () ((t3b__ref (t3b__refqtmk (t3b__content us_t1)))))
(define-fun t3b__ref_t3b__content__projection ((a t3b__ref)) us_t1 (t3b__content
                                                                   a))

(declare-datatypes () ((t35b__ref (t35b__refqtmk (t35b__content us_t1)))))
(define-fun t35b__ref_t35b__content__projection ((a t35b__ref)) us_t1 
  (t35b__content a))

(declare-fun ghc_sort__cut__cut__aggregate_def (Int Int Int) us_t1)

(define-fun dynamic_invariant2 ((temp___expr_18 Int) (temp___is_init_14 Bool)
  (temp___skip_constant_15 Bool) (temp___do_toplevel_16 Bool)
  (temp___do_typ_inv_17 Bool)) Bool (=>
                                    (or (= temp___is_init_14 true)
                                    (<= (- 2147483648) 2147483647))
                                    (in_range1 temp___expr_18)))

(declare-const rliteral positive)

;; rliteral_axiom
  (assert (= (positiveqtint rliteral) 1))

;; def_axiom
  (assert
  (forall ((temp___411 Int) (temp___412 Int) (temp___413 Int))
  (let ((temp___410 (ghc_sort__cut__cut__aggregate_def temp___411 temp___412
                    temp___413)))
  (=> (dynamic_invariant temp___411 true true true true)
  (and
  (=> (dynamic_property1 1 2147483647 temp___412 temp___413)
  (and (= (first3 temp___410) temp___412) (= (last3 temp___410) temp___413)))
  (forall ((temp___414 Int))
  (= (select (to_array1 temp___410) temp___414) rliteral)))))))

(define-fun dynamic_invariant3 ((temp___expr_180 us_t1)
  (temp___is_init_176 Bool) (temp___skip_constant_177 Bool)
  (temp___do_toplevel_178 Bool)
  (temp___do_typ_inv_179 Bool)) Bool (=>
                                     (not (= temp___skip_constant_177 true))
                                     (dynamic_property1 1 2147483647
                                     (first3 temp___expr_180)
                                     (last3 temp___expr_180))))

(define-fun dynamic_invariant4 ((temp___expr_215 us_t1)
  (temp___is_init_211 Bool) (temp___skip_constant_212 Bool)
  (temp___do_toplevel_213 Bool)
  (temp___do_typ_inv_214 Bool)) Bool (=>
                                     (not (= temp___skip_constant_212 true))
                                     (and (dynamic_property1 1
                                     (+ (length s) 1)
                                     (first3 temp___expr_215)
                                     (last3 temp___expr_215))
                                     (and (= (first3 temp___expr_215) 1)
                                     (= (last3 temp___expr_215) (+ (length s) 1))))))

(define-fun default_initial_assumption ((temp___expr_217 us_t1)
  (temp___skip_top_level_218 Bool)) Bool (and (= (first3 temp___expr_217) 1)
                                         (= (last3 temp___expr_217) (+ 
                                         (length s) 1))))

;; Assume
  (assert (dynamic_invariant1 s true false true true))

;; Assume
  (assert (< (last1 s) 2147483646))

(define-fun temp___415 () us_t1 (ghc_sort__cut__cut__aggregate_def 1 1
                                (+ (length s) 1)))

;; Assume
  (assert (= (first3 temp___415) 1))

;; Assume
  (assert (= (last3 temp___415) (+ (length s) 1)))

;; Assert
  (assert
  (ite (<= (first3 temp___415) (last3 temp___415))
  (and (<= 1 (+ (length s) 1))
  (= (- (last3 temp___415) (first3 temp___415)) (- (+ (length s) 1) 1)))
  (< (+ (length s) 1) 1)))

(define-fun ghc_sort__cut__cut__assume () us_t1 (of_array1
                                                (to_array1 temp___415)
                                                (first3 temp___415)
                                                (last3 temp___415)))

(declare-const cut (Array Int positive))

;; H
  (assert (= cut (to_array1 ghc_sort__cut__cut__assume)))

;; Assume
  (assert (= (to_rep cut__first) (first3 ghc_sort__cut__cut__assume)))

;; Assume
  (assert (= (to_rep cut__last) (last3 ghc_sort__cut__cut__assume)))

;; Assume
  (assert
  (and (dynamic_property1 1 (+ (length s) 1) (to_rep cut__first)
  (to_rep cut__last))
  (and (= (to_rep cut__first) 1) (= (to_rep cut__last) (+ (length s) 1)))))

(declare-const top Int)

;; H
  (assert (= top 1))

;; Assume
  (assert (dynamic_invariant top true false true true))

(define-fun o () Int (first1 s))

;; Ensures
  (assert (in_range2 o))

(declare-const x Int)

;; H
  (assert (= x o))

;; Assume
  (assert (dynamic_invariant x true false true true))

(define-fun o1 () Int (+ (first1 s) 1))

;; Ensures
  (assert (in_range1 o1))

;; Ensures
  (assert (in_range2 o1))

(declare-const y Int)

;; H
  (assert (= y o1))

;; Assume
  (assert (dynamic_invariant y true false true true))

;; H
  (assert
  (= (and (ite (<= (first1 s) y) true false) (ite (<= y (last1 s)) true
                                             false)) true))

;; Assert
  (assert (and (<= (to_rep cut__first) 1) (<= 1 (to_rep cut__last))))

(declare-const o2 Int)

;; Ensures
  (assert (= (to_rep1 (select cut 1)) o2))

;; Assert
  (assert (and (<= (to_rep cut__first) top) (<= top (to_rep cut__last))))

(declare-const o3 Int)

;; Ensures
  (assert (= (to_rep1 (select cut top)) o3))

(declare-const usf Int)

;; H
  (assert
  (= (and (ite (<= 1 usf) true false) (ite (<= usf (- top 1)) true false)) true))

(declare-const o4 Bool)

;; H
  (assert (in_range1 (+ usf 1)))

;; H
  (assert
  (let ((o5 (+ usf 1)))
  (and (<= (to_rep cut__first) o5) (<= o5 (to_rep cut__last)))))

(declare-const o5 Int)

;; H
  (assert (= (to_rep1 (select cut (+ usf 1))) o5))

;; H
  (assert (and (<= (to_rep cut__first) usf) (<= usf (to_rep cut__last))))

(declare-const o6 Int)

;; H
  (assert (= (to_rep1 (select cut usf)) o6))

;; H
  (assert (in_range1 (+ o6 1)))

(declare-const o7 Int)

(declare-const o8 Int)

(declare-const temp___444 Int)

(declare-const o9 Int)

;; H
  (assert
  (ite (forall ((l Int))
       (=>
       (and (<= (+ (to_rep1 (select cut usf)) 1) l)
       (<= l (- (to_rep1 (select cut (+ usf 1))) 1)))
       (< (to_rep (select (to_array s) (- l 1))) (to_rep
                                                 (select (to_array s) l)))))
  (let ((o10 (+ usf 1)))
  (and (in_range1 o10)
  (and (and (<= (to_rep cut__first) o10) (<= o10 (to_rep cut__last)))
  (and (= (to_rep1 (select cut o10)) o7)
  (let ((temp___446 (- o7 1)))
  (and (and (<= (first1 s) temp___446) (<= temp___446 (last1 s)))
  (and (= (to_rep (select (to_array s) temp___446)) o8)
  (let ((o11 (+ usf 1)))
  (and (in_range1 o11)
  (and (and (<= (to_rep cut__first) o11) (<= o11 (to_rep cut__last)))
  (and (= (to_rep1 (select cut o11)) temp___444)
  (and (and (<= (first1 s) temp___444) (<= temp___444 (last1 s)))
  (and (= (to_rep (select (to_array s) temp___444)) o9)
  (= o4 (ite (<= o9 o8) true false))))))))))))))) (= o4 false)))

;; H
  (assert (not (= o4 true)))

(declare-const usf1 Int)

(define-fun o10 () Int (+ usf 1))

;; Ensures
  (assert (in_range1 o10))

;; Assert
  (assert (and (<= (to_rep cut__first) o10) (<= o10 (to_rep cut__last))))

(declare-const o11 Int)

;; Ensures
  (assert (= (to_rep1 (select cut o10)) o11))

;; Assert
  (assert (and (<= (to_rep cut__first) usf) (<= usf (to_rep cut__last))))

(declare-const o12 Int)

;; Ensures
  (assert (= (to_rep1 (select cut usf)) o12))

(define-fun o13 () Int (+ o12 1))

;; Ensures
  (assert (in_range1 o13))

;; H
  (assert
  (= (and (ite (<= o13 usf1) true false) (ite (<= usf1 (- o11 1)) true false)) true))

;; Assert
  (assert (and (<= (first1 s) usf1) (<= usf1 (last1 s))))

(declare-const o14 Int)

;; Ensures
  (assert (= (to_rep (select (to_array s) usf1)) o14))

(define-fun o15 () Int (- usf1 1))

(assert
;; defqtvc
 ;; File "ghc_sort.ads", line 6, characters 0-0
  (not (in_range1 o15)))
(check-sat)
